\ Model festival
\ LP format - for model browsing. Use MPS format to capture full model detail.
Maximize
  250 book[Lady_Gaga] + 1200 book[Ariana_Grande] + 500 book[Taylor_Swift]
   + 100 book[Miley_Cyrus] + 2000 book[Jay-Z] + 500 book[Drake]
   + 1500 book[Eminem] + 3000 book[Kanye_West] + 1000 book[Calvin_Harris]
   + 700 book[Skrillex] + 175 book[Martin_Garrix] + 400 book[Marshmello]
   + 100 book[The_Strokes] + 200 book[Paramore] + 600 book[Fall_Out_Boy]
   + 11400 book[Twenty_One_Pilots] + 20 book[Machine_Gun_Kelly]
   + 50 book[Foo_Fighters] + 4600 book[AC/DC] + 1000 book[Elton_John_]
   + 5000 book[Carrie_Underwood] + 530 book[Luke_Bryan]
   + 2460 book[Thomas_Rhett] + 300 book[Lady_A] + 140 book[David_Guetta]
   + 500 book[Zedd] + 650 book[Steve_Aoki] + 92 book[Carol_Cox]
   + 1610 book[Swedish_House_Mafia] + 700 book[Diplo] + 250 book[Tiesto]
   + 250 book[deadmau5] + 14 book[Afrojack] - 300 book[Kaskade]
   + 14200 book[The_Chainsmokers] + 10 book[Alesso] + 1200 book[DJ_Snake]
   + 150 book[Flume] - 11 book[R3HAB] + 5 book[Gryffin] + 390 book[Kygo]
   + 50 book[Don_Diablo] + 115 book[Meduza] + 70 book[3OH!3]
   + 230 book[Illenium] + 260 book[Panic!_At_the_Disco]
   + 110 book[Bastille] + 600 book[The_Lumineers]
   + 1135 book[Florence_and_The_Machine] + 1835 book[The_1975]
   + 255 book[Bring_Me_the_Horizon] - 66 book[Animal_Collective]
   - 60 book[Maneskin] + 150 book[Grimes] + 500 book[Pearl_Jam]
   + 168 book[Weezer] + 240 book[The_Smashing_Pumpkins]
   + 2600 book[Nirvana] + 565 book[The_Killers] + 1500 book[Arctic_Monkeys]
   + 100 book[Goo_Goo_Dolls] + 200 book[Counting_Crows]
   + 70 book[Cage_The_Elephant] + 500 book[Mumford_&_Sons]
   + 500 book[The_White_Stripes] + 2500 book[Radiohead]
   + 3862 book[Blink_182] + 530 book[Aerosmith] + 1320 book[Linkin_Park]
   - 140 book[Fever_333] + 40 book[Royal_Blood] + 5000 book[Green_Day]
   + 30 book[All_American_Rejects] + 5000 book[Red_Hot_Chili_Peppers]
   + 1350 book[My_Chemical_Romance] + 4950 book[Smash_Mouth]
   + 4700 book[Third_Eye_Blind] - 54 book[All_Time_Low] + 1300 book[U2]
   + 22 book[Wolf_Alice] + 2500 book[Guns_N_Roses]
   + 500 book[Systems_of_a_Down] + 400 book[Incubus]
   + 400 book[Imagine_Dragons] + 650 book[Snow_Patrol]
   + 3700 book[Of_Monsters_and_Men] + 225 book[Yungblud]
   + 800 book[Katy_Perry] + 1800 book[Harry_Styles]
   + 300 book[Lana_Del_Rey] + 1400 book[Pink] + 2000 book[Billie_Eilish]
   + 2300 book[Maroon_5] + 1300 book[Dua_Lipa] + 4000 book[Beyonce]
   + 3500 book[Justin_Bieber] - 800 book[Bruno_Mars]
   + 6800 book[Ed_Sheeran] + 700 book[Adele] + 2690 book[Shawn_Mendes]
   + 3000 book[Halsey] + 2500 book[Lizzo] + 5800 book[Selena_Gomez]
   + 2000 book[Justin_Timberlake] + 3250 book[The_Weeknd]
   + 2300 book[Charlie_Puth] + 6500 book[Christina_Aguilera]
   - 1000 book[J_Cole] + 2200 book[Kendrick_Lamar] - 3400 book[Nicki_Minaj]
   + 7420 book[Snoop_Dogg] + 1250 book[The_Game] + 2442 book[Meek_Mill]
   + 6000 book[Dr._Dre] + 4850 book[50_Cent] + 5700 book[Lil_Wayne]
   + 140 book[Cardi_B] + 1800 book[Kid_Cudi] + 1850 book[Chris_Brown]
   + 2800 book[Chance_the_Rapper] + 1750 book[Megan_Thee_Stallion]
   + 4250 book[Migos] + 2250 book[Doja_Cat] + 600 book[Future]
   - 40 book[Offset] + 2350 book[Ty_Dolla_$ign] + 800 book[ASAP_Rocky]
   + 4970 book[Post_Malone] - 300 book[Keith_Urban]
   + 2300 book[Zac_Brown_Band] + 3000 book[Blake_Shelton]
   + 600 book[Chapel_Hart] + 620 book[Maddie_&_Tae] - 1100 book[Dan_+_Shay]
   + 1020 book[Midland] - 3150 book[Florida_Georgia_Line]
   + 5200 book[Tim_McGraw] - 500 book[Sam_Hunt] + 1720 book[Luke_Combs]
   - 300 book[Chris_Stapleton] + 250 book[Dierks_Bentley]
   + 50 book[Maren_Morris] + 1579 book[Faith_Hill] + 3800 book[Eric_Church]
   + 300 book[Kane_Brown] + 510 book[Brad_Paisley]
   + 1430 book[Kenny_Chesney] + 45 book[Jimmie_Allen]
   + 200 book[Dustin_Lynch]
Subject To
 budget: 750 book[Lady_Gaga] + 6000 book[Ariana_Grande]
   + 1000 book[Taylor_Swift] + 900 book[Miley_Cyrus] + 3000 book[Jay-Z]
   + 1500 book[Drake] + 1500 book[Eminem] + 1000 book[Kanye_West]
   + 1500 book[Calvin_Harris] + 2000 book[Skrillex]
   + 825 book[Martin_Garrix] + 2300 book[Marshmello]
   + 2000 book[The_Strokes] + 400 book[Paramore] + 400 book[Fall_Out_Boy]
   + 600 book[Twenty_One_Pilots] + 100 book[Machine_Gun_Kelly]
   + 950 book[Foo_Fighters] + 8400 book[AC/DC] + 5000 book[Elton_John_]
   + 15000 book[Carrie_Underwood] + 470 book[Luke_Bryan]
   + 6540 book[Thomas_Rhett] + 500 book[Lady_A] + 650 book[David_Guetta]
   + 4500 book[Zedd] + 2250 book[Steve_Aoki] + 250 book[Carol_Cox]
   + 890 book[Swedish_House_Mafia] + 3200 book[Diplo] + 750 book[Tiesto]
   + 250 book[deadmau5] + 50 book[Afrojack] + 300 book[Kaskade]
   + 800 book[The_Chainsmokers] + 300 book[Alesso] + 100 book[DJ_Snake]
   + 750 book[Flume] + 75 book[R3HAB] + 75 book[Gryffin] + 1000 book[Kygo]
   + 300 book[Don_Diablo] + 75 book[Meduza] + 30 book[3OH!3]
   + 300 book[Illenium] + 1300 book[Panic!_At_the_Disco]
   + 490 book[Bastille] + 2600 book[The_Lumineers]
   + 3405 book[Florence_and_The_Machine] + 965 book[The_1975]
   + 245 book[Bring_Me_the_Horizon] + 150 book[Animal_Collective]
   + 600 book[Maneskin] + 150 book[Grimes] + 500 book[Pearl_Jam]
   + 300 book[Weezer] + 1500 book[Muse] + 1000 book[The_Smashing_Pumpkins]
   + 600 book[Nirvana] + 1000 book[The_Killers] + 1500 book[Arctic_Monkeys]
   + 300 book[Goo_Goo_Dolls] + 300 book[Counting_Crows]
   + 50 book[Cage_The_Elephant] + 1500 book[Mumford_&_Sons]
   + 1500 book[The_White_Stripes] + 1500 book[Radiohead]
   + 2950 book[Blink_182] + 4700 book[Aerosmith] + 1680 book[Linkin_Park]
   + 590 book[Fever_333] + 260 book[Royal_Blood] + 3000 book[Green_Day]
   + 120 book[All_American_Rejects] + 1000 book[Red_Hot_Chili_Peppers]
   + 150 book[My_Chemical_Romance] + 50 book[Smash_Mouth]
   + 300 book[Third_Eye_Blind] + 150 book[All_Time_Low] + 1000 book[U2]
   + 25 book[Wolf_Alice] + 1500 book[Guns_N_Roses]
   + 1000 book[Systems_of_a_Down] + 500 book[Incubus]
   + 1000 book[Imagine_Dragons] + 750 book[Snow_Patrol]
   + 300 book[Of_Monsters_and_Men] + 75 book[Yungblud]
   + 3200 book[Katy_Perry] + 7200 book[Harry_Styles]
   + 5900 book[Lana_Del_Rey] + 2100 book[Pink] + 8000 book[Billie_Eilish]
   + 6700 book[Maroon_5] + 1300 book[Dua_Lipa] + 2000 book[Beyonce]
   + 1000 book[Justin_Bieber] + 5000 book[Bruno_Mars]
   + 1000 book[Ed_Sheeran] + 800 book[Adele] + 1500 book[Shawn_Mendes]
   + 2000 book[Halsey] + 2500 book[Lizzo] + 200 book[Selena_Gomez]
   + 1000 book[Justin_Timberlake] + 750 book[The_Weeknd]
   + 500 book[Charlie_Puth] + 1000 book[Christina_Aguilera]
   + 7500 book[J_Cole] + 800 book[Kendrick_Lamar] + 8900 book[Nicki_Minaj]
   + 80 book[Snoop_Dogg] + 1200 book[The_Game] + 5523 book[Meek_Mill]
   + 500 book[Dr._Dre] + 150 book[50_Cent] + 300 book[Lil_Wayne]
   + 800 book[Cardi_B] + 200 book[Kid_Cudi] + 150 book[Chris_Brown]
   + 1200 book[Chance_the_Rapper] + 250 book[Megan_Thee_Stallion]
   + 750 book[Migos] + 750 book[Doja_Cat] + 50 book[Future]
   + 300 book[Offset] + 150 book[Ty_Dolla_$ign] + 200 book[ASAP_Rocky]
   + 30 book[Post_Malone] + 7000 book[Keith_Urban]
   + 1200 book[Zac_Brown_Band] + 1000 book[Blake_Shelton]
   + 2000 book[Chapel_Hart] + 880 book[Maddie_&_Tae]
   + 3900 book[Dan_+_Shay] + 980 book[Midland]
   + 7450 book[Florida_Georgia_Line] + 1000 book[Tim_McGraw]
   + 750 book[Sam_Hunt] + 780 book[Luke_Combs] + 1500 book[Chris_Stapleton]
   + 750 book[Dierks_Bentley] + 750 book[Maren_Morris]
   + 1000 book[Faith_Hill] + 2500 book[Eric_Church] + 200 book[Kane_Brown]
   + 750 book[Brad_Paisley] + 1000 book[Kenny_Chesney]
   + 75 book[Jimmie_Allen] + 300 book[Dustin_Lynch] <= 16000
 capacity: 5 book[Lady_Gaga] + 100 book[Ariana_Grande]
   + 21 book[Taylor_Swift] + 16 book[Miley_Cyrus] + 30 book[Jay-Z]
   + 20 book[Drake] + 50 book[Eminem] + 40 book[Kanye_West]
   + 10 book[Calvin_Harris] + 15 book[Skrillex] + 12 book[Martin_Garrix]
   + 31 book[Marshmello] + 8 book[The_Strokes] + 67 book[Paramore]
   + 18 book[Fall_Out_Boy] + 12 book[Twenty_One_Pilots]
   + 5 book[Machine_Gun_Kelly] + 85 book[Foo_Fighters] + 79 book[AC/DC]
   + 63 book[Elton_John_] + 780 book[Carrie_Underwood]
   + 20 book[Luke_Bryan] + 560 book[Thomas_Rhett] + 15 book[Lady_A]
   + 75 book[David_Guetta] + 40 book[Zedd] + 38 book[Steve_Aoki]
   + 7 book[Carol_Cox] + 29 book[Swedish_House_Mafia] + 36 book[Diplo]
   + 3 book[Tiesto] + 2 book[deadmau5] + 5 book[Afrojack]
   + 10 book[Kaskade] + 15 book[The_Chainsmokers] + 160 book[Alesso]
   + 30 book[DJ_Snake] + 20 book[Flume] + 15 book[R3HAB] + 13 book[Gryffin]
   + 20 book[Kygo] + 18 book[Don_Diablo] + 15 book[Meduza] + 5 book[3OH!3]
   + 5 book[Illenium] + 12 book[Panic!_At_the_Disco] + 4 book[Bastille]
   + 42 book[The_Lumineers] + 60 book[Florence_and_The_Machine]
   + 25 book[The_1975] + 16 book[Bring_Me_the_Horizon]
   + 9 book[Animal_Collective] + 12 book[Maneskin] + 9 book[Grimes]
   + 13 book[Pearl_Jam] + 15 book[Weezer] + 23 book[Muse]
   + 5 book[The_Smashing_Pumpkins] + 50 book[Nirvana]
   + 100 book[The_Killers] + 300 book[Arctic_Monkeys]
   + 2 book[Goo_Goo_Dolls] + 200 book[Counting_Crows]
   + 205 book[Cage_The_Elephant] + 300 book[Mumford_&_Sons]
   + 250 book[The_White_Stripes] + 200 book[Radiohead] + 55 book[Blink_182]
   + 89 book[Aerosmith] + 48 book[Linkin_Park] + 2 book[Fever_333]
   + book[Royal_Blood] + 60 book[Green_Day] + 30 book[All_American_Rejects]
   + 200 book[Red_Hot_Chili_Peppers] + 150 book[My_Chemical_Romance]
   + 16 book[Smash_Mouth] + 15 book[Third_Eye_Blind] + 5 book[All_Time_Low]
   + 150 book[U2] + 4 book[Wolf_Alice] + 3000 book[Guns_N_Roses]
   + 45 book[Systems_of_a_Down] + 40 book[Incubus]
   + 20 book[Imagine_Dragons] + 80 book[Snow_Patrol]
   + 40 book[Of_Monsters_and_Men] + 20 book[Yungblud] + 34 book[Katy_Perry]
   + 65 book[Harry_Styles] + 42 book[Lana_Del_Rey] + 32 book[Pink]
   + 115 book[Billie_Eilish] + 107 book[Maroon_5] + 100 book[Dua_Lipa]
   + 400 book[Beyonce] + 46 book[Justin_Bieber] + 70 book[Bruno_Mars]
   + 65 book[Ed_Sheeran] + 70 book[Adele] + 95 book[Shawn_Mendes]
   + 20 book[Halsey] + 40 book[Lizzo] + 60 book[Selena_Gomez]
   + 16 book[Justin_Timberlake] + 13 book[The_Weeknd]
   + 50 book[Charlie_Puth] + 70 book[Christina_Aguilera] + 160 book[J_Cole]
   + 13 book[Kendrick_Lamar] + 136 book[Nicki_Minaj] + 20 book[Snoop_Dogg]
   + 40 book[The_Game] + 65 book[Meek_Mill] + 20 book[Dr._Dre]
   + 10 book[50_Cent] + 20 book[Lil_Wayne] + 65 book[Cardi_B]
   + 8 book[Kid_Cudi] + 8 book[Chris_Brown] + 50 book[Chance_the_Rapper]
   + 45 book[Megan_Thee_Stallion] + 40 book[Migos] + 50 book[Doja_Cat]
   + 42 book[Future] + 30 book[Offset] + 25 book[Ty_Dolla_$ign]
   + 20 book[ASAP_Rocky] + 30 book[Post_Malone] + 320 book[Keith_Urban]
   + 19 book[Zac_Brown_Band] + 14 book[Blake_Shelton]
   + 26 book[Chapel_Hart] + 10 book[Maddie_&_Tae] + 14 book[Dan_+_Shay]
   + 31 book[Midland] + 45 book[Florida_Georgia_Line] + 17 book[Tim_McGraw]
   + 11 book[Sam_Hunt] + 19 book[Luke_Combs] + 6 book[Chris_Stapleton]
   + 10 book[Dierks_Bentley] + 8 book[Maren_Morris] + 13 book[Faith_Hill]
   + 30 book[Eric_Church] + 40 book[Kane_Brown] + 50 book[Brad_Paisley]
   + 54 book[Kenny_Chesney] + 9 book[Jimmie_Allen] + 30 book[Dustin_Lynch]
   <= 500
 minpopartists: book[Lady_Gaga] + book[Ariana_Grande] + book[Taylor_Swift]
   + book[Miley_Cyrus] + book[Katy_Perry] + book[Harry_Styles]
   + book[Lana_Del_Rey] + book[Pink] + book[Billie_Eilish] + book[Maroon_5]
   + book[Dua_Lipa] + book[Beyonce] + book[Justin_Bieber]
   + book[Bruno_Mars] + book[Ed_Sheeran] + book[Adele] + book[Shawn_Mendes]
   + book[Halsey] + book[Lizzo] + book[Selena_Gomez]
   + book[Justin_Timberlake] + book[The_Weeknd] + book[Charlie_Puth]
   + book[Christina_Aguilera] >= 6
 minhiphopartists: book[Jay-Z] + book[Drake] + book[Eminem]
   + book[Kanye_West] + book[J_Cole] + book[Kendrick_Lamar]
   + book[Nicki_Minaj] + book[Snoop_Dogg] + book[The_Game]
   + book[Meek_Mill] + book[Dr._Dre] + book[50_Cent] + book[Lil_Wayne]
   + book[Cardi_B] + book[Kid_Cudi] + book[Chris_Brown]
   + book[Chance_the_Rapper] + book[Megan_Thee_Stallion] + book[Migos]
   + book[Doja_Cat] + book[Future] + book[Offset] + book[Ty_Dolla_$ign]
   + book[ASAP_Rocky] + book[Post_Malone] >= 8
 minedmartists: book[Calvin_Harris] + book[Skrillex] + book[Martin_Garrix]
   + book[Marshmello] + book[David_Guetta] + book[Zedd] + book[Carol_Cox]
   + book[Swedish_House_Mafia] + book[Diplo] + book[Tiesto]
   + book[Afrojack] + book[Kaskade] + book[The_Chainsmokers] + book[Alesso]
   + book[Flume] + book[R3HAB] + book[Gryffin] + book[Kygo] + book[Meduza]
   + book[3OH!3] + book[Illenium] >= 1
 minalternativeartists: book[The_Strokes] + book[Paramore]
   + book[Fall_Out_Boy] + book[Twenty_One_Pilots] + book[Steve_Aoki]
   + book[deadmau5] + book[DJ_Snake] + book[Don_Diablo]
   + book[Panic!_At_the_Disco] + book[Bastille] + book[The_Lumineers]
   + book[Florence_and_The_Machine] + book[The_1975]
   + book[Bring_Me_the_Horizon] + book[Animal_Collective] + book[Maneskin]
   + book[Grimes] + book[Pearl_Jam] + book[Weezer] + book[Muse]
   + book[The_Smashing_Pumpkins] + book[Nirvana] + book[The_Killers]
   + book[Arctic_Monkeys] + book[Goo_Goo_Dolls] + book[Counting_Crows]
   + book[Cage_The_Elephant] + book[Mumford_&_Sons]
   + book[The_White_Stripes] + book[Radiohead] >= 3
 minrockartists: book[Machine_Gun_Kelly] + book[Foo_Fighters] + book[AC/DC]
   + book[Elton_John_] + book[Blink_182] + book[Aerosmith]
   + book[Linkin_Park] + book[Fever_333] + book[Royal_Blood]
   + book[Green_Day] + book[All_American_Rejects]
   + book[Red_Hot_Chili_Peppers] + book[My_Chemical_Romance]
   + book[Smash_Mouth] + book[Third_Eye_Blind] + book[All_Time_Low]
   + book[U2] + book[Wolf_Alice] + book[Guns_N_Roses]
   + book[Systems_of_a_Down] + book[Incubus] + book[Imagine_Dragons]
   + book[Snow_Patrol] + book[Of_Monsters_and_Men] + book[Yungblud] >= 3
 mincountryartists: book[Carrie_Underwood] + book[Luke_Bryan]
   + book[Thomas_Rhett] + book[Lady_A] + book[Keith_Urban]
   + book[Zac_Brown_Band] + book[Blake_Shelton] + book[Chapel_Hart]
   + book[Maddie_&_Tae] + book[Dan_+_Shay] + book[Midland]
   + book[Florida_Georgia_Line] + book[Tim_McGraw] + book[Sam_Hunt]
   + book[Luke_Combs] + book[Chris_Stapleton] + book[Dierks_Bentley]
   + book[Maren_Morris] + book[Faith_Hill] + book[Eric_Church]
   + book[Kane_Brown] + book[Brad_Paisley] + book[Kenny_Chesney]
   + book[Jimmie_Allen] + book[Dustin_Lynch] >= 8
 totalartists: book[Lady_Gaga] + book[Ariana_Grande] + book[Taylor_Swift]
   + book[Miley_Cyrus] + book[Jay-Z] + book[Drake] + book[Eminem]
   + book[Kanye_West] + book[Calvin_Harris] + book[Skrillex]
   + book[Martin_Garrix] + book[Marshmello] + book[The_Strokes]
   + book[Paramore] + book[Fall_Out_Boy] + book[Twenty_One_Pilots]
   + book[Machine_Gun_Kelly] + book[Foo_Fighters] + book[AC/DC]
   + book[Elton_John_] + book[Carrie_Underwood] + book[Luke_Bryan]
   + book[Thomas_Rhett] + book[Lady_A] + book[David_Guetta] + book[Zedd]
   + book[Steve_Aoki] + book[Carol_Cox] + book[Swedish_House_Mafia]
   + book[Diplo] + book[Tiesto] + book[deadmau5] + book[Afrojack]
   + book[Kaskade] + book[The_Chainsmokers] + book[Alesso] + book[DJ_Snake]
   + book[Flume] + book[R3HAB] + book[Gryffin] + book[Kygo]
   + book[Don_Diablo] + book[Meduza] + book[3OH!3] + book[Illenium]
   + book[Panic!_At_the_Disco] + book[Bastille] + book[The_Lumineers]
   + book[Florence_and_The_Machine] + book[The_1975]
   + book[Bring_Me_the_Horizon] + book[Animal_Collective] + book[Maneskin]
   + book[Grimes] + book[Pearl_Jam] + book[Weezer] + book[Muse]
   + book[The_Smashing_Pumpkins] + book[Nirvana] + book[The_Killers]
   + book[Arctic_Monkeys] + book[Goo_Goo_Dolls] + book[Counting_Crows]
   + book[Cage_The_Elephant] + book[Mumford_&_Sons]
   + book[The_White_Stripes] + book[Radiohead] + book[Blink_182]
   + book[Aerosmith] + book[Linkin_Park] + book[Fever_333]
   + book[Royal_Blood] + book[Green_Day] + book[All_American_Rejects]
   + book[Red_Hot_Chili_Peppers] + book[My_Chemical_Romance]
   + book[Smash_Mouth] + book[Third_Eye_Blind] + book[All_Time_Low]
   + book[U2] + book[Wolf_Alice] + book[Guns_N_Roses]
   + book[Systems_of_a_Down] + book[Incubus] + book[Imagine_Dragons]
   + book[Snow_Patrol] + book[Of_Monsters_and_Men] + book[Yungblud]
   + book[Katy_Perry] + book[Harry_Styles] + book[Lana_Del_Rey]
   + book[Pink] + book[Billie_Eilish] + book[Maroon_5] + book[Dua_Lipa]
   + book[Beyonce] + book[Justin_Bieber] + book[Bruno_Mars]
   + book[Ed_Sheeran] + book[Adele] + book[Shawn_Mendes] + book[Halsey]
   + book[Lizzo] + book[Selena_Gomez] + book[Justin_Timberlake]
   + book[The_Weeknd] + book[Charlie_Puth] + book[Christina_Aguilera]
   + book[J_Cole] + book[Kendrick_Lamar] + book[Nicki_Minaj]
   + book[Snoop_Dogg] + book[The_Game] + book[Meek_Mill] + book[Dr._Dre]
   + book[50_Cent] + book[Lil_Wayne] + book[Cardi_B] + book[Kid_Cudi]
   + book[Chris_Brown] + book[Chance_the_Rapper]
   + book[Megan_Thee_Stallion] + book[Migos] + book[Doja_Cat]
   + book[Future] + book[Offset] + book[Ty_Dolla_$ign] + book[ASAP_Rocky]
   + book[Post_Malone] + book[Keith_Urban] + book[Zac_Brown_Band]
   + book[Blake_Shelton] + book[Chapel_Hart] + book[Maddie_&_Tae]
   + book[Dan_+_Shay] + book[Midland] + book[Florida_Georgia_Line]
   + book[Tim_McGraw] + book[Sam_Hunt] + book[Luke_Combs]
   + book[Chris_Stapleton] + book[Dierks_Bentley] + book[Maren_Morris]
   + book[Faith_Hill] + book[Eric_Church] + book[Kane_Brown]
   + book[Brad_Paisley] + book[Kenny_Chesney] + book[Jimmie_Allen]
   + book[Dustin_Lynch] = 40
Bounds
Binaries
 book[Lady_Gaga] book[Ariana_Grande] book[Taylor_Swift] book[Miley_Cyrus]
 book[Jay-Z] book[Drake] book[Eminem] book[Kanye_West] book[Calvin_Harris]
 book[Skrillex] book[Martin_Garrix] book[Marshmello] book[The_Strokes]
 book[Paramore] book[Fall_Out_Boy] book[Twenty_One_Pilots]
 book[Machine_Gun_Kelly] book[Foo_Fighters] book[AC/DC] book[Elton_John_]
 book[Carrie_Underwood] book[Luke_Bryan] book[Thomas_Rhett] book[Lady_A]
 book[David_Guetta] book[Zedd] book[Steve_Aoki] book[Carol_Cox]
 book[Swedish_House_Mafia] book[Diplo] book[Tiesto] book[deadmau5]
 book[Afrojack] book[Kaskade] book[The_Chainsmokers] book[Alesso]
 book[DJ_Snake] book[Flume] book[R3HAB] book[Gryffin] book[Kygo]
 book[Don_Diablo] book[Meduza] book[3OH!3] book[Illenium]
 book[Panic!_At_the_Disco] book[Bastille] book[The_Lumineers]
 book[Florence_and_The_Machine] book[The_1975] book[Bring_Me_the_Horizon]
 book[Animal_Collective] book[Maneskin] book[Grimes] book[Pearl_Jam]
 book[Weezer] book[Muse] book[The_Smashing_Pumpkins] book[Nirvana]
 book[The_Killers] book[Arctic_Monkeys] book[Goo_Goo_Dolls]
 book[Counting_Crows] book[Cage_The_Elephant] book[Mumford_&_Sons]
 book[The_White_Stripes] book[Radiohead] book[Blink_182] book[Aerosmith]
 book[Linkin_Park] book[Fever_333] book[Royal_Blood] book[Green_Day]
 book[All_American_Rejects] book[Red_Hot_Chili_Peppers]
 book[My_Chemical_Romance] book[Smash_Mouth] book[Third_Eye_Blind]
 book[All_Time_Low] book[U2] book[Wolf_Alice] book[Guns_N_Roses]
 book[Systems_of_a_Down] book[Incubus] book[Imagine_Dragons]
 book[Snow_Patrol] book[Of_Monsters_and_Men] book[Yungblud]
 book[Katy_Perry] book[Harry_Styles] book[Lana_Del_Rey] book[Pink]
 book[Billie_Eilish] book[Maroon_5] book[Dua_Lipa] book[Beyonce]
 book[Justin_Bieber] book[Bruno_Mars] book[Ed_Sheeran] book[Adele]
 book[Shawn_Mendes] book[Halsey] book[Lizzo] book[Selena_Gomez]
 book[Justin_Timberlake] book[The_Weeknd] book[Charlie_Puth]
 book[Christina_Aguilera] book[J_Cole] book[Kendrick_Lamar]
 book[Nicki_Minaj] book[Snoop_Dogg] book[The_Game] book[Meek_Mill]
 book[Dr._Dre] book[50_Cent] book[Lil_Wayne] book[Cardi_B] book[Kid_Cudi]
 book[Chris_Brown] book[Chance_the_Rapper] book[Megan_Thee_Stallion]
 book[Migos] book[Doja_Cat] book[Future] book[Offset] book[Ty_Dolla_$ign]
 book[ASAP_Rocky] book[Post_Malone] book[Keith_Urban] book[Zac_Brown_Band]
 book[Blake_Shelton] book[Chapel_Hart] book[Maddie_&_Tae] book[Dan_+_Shay]
 book[Midland] book[Florida_Georgia_Line] book[Tim_McGraw] book[Sam_Hunt]
 book[Luke_Combs] book[Chris_Stapleton] book[Dierks_Bentley]
 book[Maren_Morris] book[Faith_Hill] book[Eric_Church] book[Kane_Brown]
 book[Brad_Paisley] book[Kenny_Chesney] book[Jimmie_Allen]
 book[Dustin_Lynch]
End
